GeneratedTests/Random_9/Random_9_20.tsp
NAME: Random_9_20
TYPE: TSP
DIMENSION: 9
EDGE_WEIGHT_TYPE: EUC_2D
NODE_COORD_SECTION
1 10.950442 15.403386
2 14.583178 4.7339096
3 10.861919 13.777771
4 10.809932 2.0376472
5 18.598866 25.494146
6 11.03948 24.133043
7 1.406198 0.9962513
8 0.11308569 14.30543
9 24.83283 20.618822
EOF
