GeneratedTests/Random_9/Random_9_20.txt
NAME: Random_9_20
TYPE: TSP
DIMENSION: 9
EDGE_WEIGHT_TYPE: EUC_2D
NODE_COORD_SECTION
1 23.658407 22.371038
2 7.069948 12.990585
3 25.692488 0.14381415
4 25.341045 19.174362
5 25.209814 6.443816
6 2.5776887 14.757287
7 0.14202458 22.158392
8 25.672073 17.903385
9 15.135669 11.025506
EOF
